NumGames = 11;
NumReferees = 22;
NumFields = 4;
game_id = [3677, 3686, 3687, 3692, 3693, 3694, 3695, 3715, 3716, 3717, 3733];
game_start = [1110, 600, 780, 600, 720, 840, 945, 960, 1140, 1230, 960];
game_end = [1230, 720, 900, 720, 840, 960, 1065, 1080, 1260, 1350, 1080];
difficulty = [3, 2, 2, 1, 1, 1, 1, 1, 1, 1, 1];
game_field = [1, 2, 2, 3, 3, 3, 3, 4, 4, 4, 4];
referee_id = [1206, 2777, 3260, 3262, 3263, 3267, 3517, 3524, 3526, 3533, 3539, 3614, 3640, 3734, 7496, 7503, 7506, 7533, 7535, 7539, 7550, 7565];
main_exp = [277, 67, 147, 105, 135, 36, 34, 12, 57, 31, 12, 6, 1, 21, 0, 18, 1, 6, 0, 0, 2, 14];
assist_exp = [151, 50, 99, 79, 101, 133, 14, 61, 106, 43, 97, 44, 32, 3, 15, 59, 42, 24, 0, 0, 15, 0];
available_slots = array3d(1..NumReferees, 1..3, 1..2,[
  720,1260, 0,0, 0,0,
  720,1260, 0,0, 0,0,
  0,1440, 0,0, 0,0,
  600,1080, 0,0, 0,0,
  0,900, 0,0, 0,0,
  0,1440, 0,0, 0,0,
  600,720, 0,0, 0,0,
  0,1440, 0,0, 0,0,
  0,1440, 0,0, 0,0,
  0,1440, 0,0, 0,0,
  0,1440, 0,0, 0,0,
  0,1440, 0,0, 0,0,
  0,1440, 0,0, 0,0,
  1080,1260, 0,0, 0,0,
  0,1440, 0,0, 0,0,
  0,720, 840,1380, 0,0,
  0,1440, 0,0, 0,0,
  0,1440, 0,0, 0,0,
  1110,1230, 0,0, 0,0,
  540,750, 850,1110, 0,0,
  0,1440, 0,0, 0,0,
  0,1440, 0,0, 0,0,
]);